Route #1: 0 10 11 8 9 6 4 2 1 75 5 3 7 0
Route #2: 0 13 15 12 14 16 19 18 17 0
Route #3: 0 20 22 25 24 31 29 27 30 28 26 23 21 0
Route #4: 0 34 36 39 38 37 35 33 32 50 44 0
Route #5: 0 43 47 49 52 51 48 45 46 42 41 40 61 72 69 0
Route #6: 0 67 65 63 74 62 64 68 66 0
Route #7: 0 55 57 54 53 56 58 60 59 0
Route #8: 0 90 89 87 86 84 85 88 91 98 100 0
Route #9: 0 99 96 95 97 93 92 94 82 83 0
Route #10: 0 81 78 76 71 70 73 77 79 80 0
Cost 948:
